<?xml version="1.0" encoding="UTF-8"?><osil xmlns="os.optimizationservices.org"   xmlns:xsi="http://www.w3.org/2001/XMLSchema-instance" xsi:schemaLocation="os.optimizationservices.org http://www.optimizationservices.org/schemas/2.0/OSiL.xsd" ><instanceHeader><name>q_30_0_25_3</name></instanceHeader><instanceData><variables numberOfVariables="30"><var name="x1" ub="1"/><var name="x2" ub="1"/><var name="x3" ub="1"/><var name="x4" ub="1"/><var name="x5" ub="1"/><var name="x6" ub="1"/><var name="x7" ub="1"/><var name="x8" ub="1"/><var name="x9" ub="1"/><var name="x10" ub="1"/><var name="x11" ub="1"/><var name="x12" ub="1"/><var name="x13" ub="1"/><var name="x14" ub="1"/><var name="x15" ub="1"/><var name="x16" ub="1"/><var name="x17" ub="1"/><var name="x18" ub="1"/><var name="x19" ub="1"/><var name="x20" ub="1"/><var name="x21" ub="1"/><var name="x22" ub="1"/><var name="x23" ub="1"/><var name="x24" ub="1"/><var name="x25" ub="1"/><var name="x26" ub="1"/><var name="x27" ub="1"/><var name="x28" ub="1"/><var name="x29" ub="1"/><var name="x30" ub="1"/></variables><objectives numberOfObjectives="1"><obj maxOrMin="min" name="defObj_x31" numberOfObjCoef="30"><coef idx="0">-.9637</coef><coef idx="1">-.3318</coef><coef idx="2">-.3304</coef><coef idx="3">8.6e-3</coef><coef idx="4">-.2382</coef><coef idx="5">.7865</coef><coef idx="6">-.4775</coef><coef idx="7">-1.12e-2</coef><coef idx="8">.4793</coef><coef idx="9">.2361</coef><coef idx="10">.3537</coef><coef idx="11">.4693</coef><coef idx="12">.7316</coef><coef idx="13">.3182</coef><coef idx="14">.8041</coef><coef idx="15">-.4561</coef><coef idx="16">.8676</coef><coef idx="17">-.7196</coef><coef idx="18">-.3273</coef><coef idx="19">-5.17e-2</coef><coef idx="20">-.9975</coef><coef idx="21">-.5365</coef><coef idx="22">.9168</coef><coef idx="23">.7715</coef><coef idx="24">.1129</coef><coef idx="25">-.3254</coef><coef idx="26">-.6267</coef><coef idx="27">-.2341</coef><coef idx="28">.332</coef><coef idx="29">.8281</coef></obj></objectives><quadraticCoefficients  numberOfQuadraticTerms="116" ><qTerm  idx="-1"  idxOne="0"  idxTwo="6"  coef="1.2871"/><qTerm  idx="-1"  idxOne="0"  idxTwo="9"  coef="1.9983"/><qTerm  idx="-1"  idxOne="0"  idxTwo="17"  coef="-.8953"/><qTerm  idx="-1"  idxOne="0"  idxTwo="20"  coef="1.0362"/><qTerm  idx="-1"  idxOne="0"  idxTwo="28"  coef="-2.31e-2"/><qTerm  idx="-1"  idxOne="1"  idxTwo="2"  coef="1.7895"/><qTerm  idx="-1"  idxOne="1"  idxTwo="3"  coef="-1.0415"/><qTerm  idx="-1"  idxOne="1"  idxTwo="7"  coef="-.1849"/><qTerm  idx="-1"  idxOne="1"  idxTwo="14"  coef="1.0674"/><qTerm  idx="-1"  idxOne="1"  idxTwo="15"  coef="1.963"/><qTerm  idx="-1"  idxOne="1"  idxTwo="18"  coef=".6528"/><qTerm  idx="-1"  idxOne="1"  idxTwo="19"  coef="-1.2742"/><qTerm  idx="-1"  idxOne="2"  idxTwo="4"  coef=".9667"/><qTerm  idx="-1"  idxOne="2"  idxTwo="5"  coef="-1.1454"/><qTerm  idx="-1"  idxOne="2"  idxTwo="8"  coef="-.4939"/><qTerm  idx="-1"  idxOne="2"  idxTwo="11"  coef="-.2766"/><qTerm  idx="-1"  idxOne="2"  idxTwo="14"  coef=".7866"/><qTerm  idx="-1"  idxOne="2"  idxTwo="18"  coef="-.9673"/><qTerm  idx="-1"  idxOne="2"  idxTwo="24"  coef="-1.1491"/><qTerm  idx="-1"  idxOne="2"  idxTwo="26"  coef="7.9e-2"/><qTerm  idx="-1"  idxOne="2"  idxTwo="29"  coef="-1.7008"/><qTerm  idx="-1"  idxOne="3"  idxTwo="4"  coef="-.8546"/><qTerm  idx="-1"  idxOne="3"  idxTwo="10"  coef=".5267"/><qTerm  idx="-1"  idxOne="3"  idxTwo="11"  coef="1.7043"/><qTerm  idx="-1"  idxOne="3"  idxTwo="12"  coef="-1.0599"/><qTerm  idx="-1"  idxOne="3"  idxTwo="17"  coef=".1968"/><qTerm  idx="-1"  idxOne="3"  idxTwo="22"  coef="-1.5817"/><qTerm  idx="-1"  idxOne="3"  idxTwo="28"  coef=".5878"/><qTerm  idx="-1"  idxOne="3"  idxTwo="29"  coef=".5431"/><qTerm  idx="-1"  idxOne="4"  idxTwo="5"  coef="1.24"/><qTerm  idx="-1"  idxOne="4"  idxTwo="6"  coef=".7898"/><qTerm  idx="-1"  idxOne="4"  idxTwo="11"  coef="1.3578"/><qTerm  idx="-1"  idxOne="4"  idxTwo="12"  coef="-1.4488"/><qTerm  idx="-1"  idxOne="4"  idxTwo="21"  coef="1.2795"/><qTerm  idx="-1"  idxOne="4"  idxTwo="22"  coef=".1659"/><qTerm  idx="-1"  idxOne="4"  idxTwo="26"  coef="-1.1779"/><qTerm  idx="-1"  idxOne="4"  idxTwo="27"  coef="-.6578"/><qTerm  idx="-1"  idxOne="4"  idxTwo="29"  coef="-8.e-2"/><qTerm  idx="-1"  idxOne="5"  idxTwo="11"  coef=".4155"/><qTerm  idx="-1"  idxOne="5"  idxTwo="12"  coef="-1.2583"/><qTerm  idx="-1"  idxOne="5"  idxTwo="13"  coef="-.253"/><qTerm  idx="-1"  idxOne="5"  idxTwo="15"  coef="1.4524"/><qTerm  idx="-1"  idxOne="5"  idxTwo="17"  coef="1.8441"/><qTerm  idx="-1"  idxOne="5"  idxTwo="25"  coef="1.4148"/><qTerm  idx="-1"  idxOne="5"  idxTwo="28"  coef="-1.6524"/><qTerm  idx="-1"  idxOne="6"  idxTwo="8"  coef="1.3723"/><qTerm  idx="-1"  idxOne="6"  idxTwo="10"  coef="-1.6225"/><qTerm  idx="-1"  idxOne="6"  idxTwo="11"  coef="-1.0124"/><qTerm  idx="-1"  idxOne="6"  idxTwo="14"  coef="-.5831"/><qTerm  idx="-1"  idxOne="6"  idxTwo="15"  coef=".8389"/><qTerm  idx="-1"  idxOne="6"  idxTwo="23"  coef="-1.8938"/><qTerm  idx="-1"  idxOne="6"  idxTwo="24"  coef="1.8633"/><qTerm  idx="-1"  idxOne="6"  idxTwo="28"  coef=".8765"/><qTerm  idx="-1"  idxOne="7"  idxTwo="8"  coef=".5145"/><qTerm  idx="-1"  idxOne="7"  idxTwo="9"  coef="-1.1965"/><qTerm  idx="-1"  idxOne="7"  idxTwo="10"  coef=".2915"/><qTerm  idx="-1"  idxOne="7"  idxTwo="12"  coef="1.8264"/><qTerm  idx="-1"  idxOne="7"  idxTwo="14"  coef=".4496"/><qTerm  idx="-1"  idxOne="7"  idxTwo="20"  coef="-1.2543"/><qTerm  idx="-1"  idxOne="7"  idxTwo="23"  coef="-1.6835"/><qTerm  idx="-1"  idxOne="7"  idxTwo="26"  coef=".1757"/><qTerm  idx="-1"  idxOne="7"  idxTwo="29"  coef="-4.35e-2"/><qTerm  idx="-1"  idxOne="8"  idxTwo="8"  coef="1.5132"/><qTerm  idx="-1"  idxOne="8"  idxTwo="11"  coef="-1.3831"/><qTerm  idx="-1"  idxOne="8"  idxTwo="16"  coef="-1.4702"/><qTerm  idx="-1"  idxOne="8"  idxTwo="19"  coef=".3559"/><qTerm  idx="-1"  idxOne="8"  idxTwo="21"  coef="-.2564"/><qTerm  idx="-1"  idxOne="9"  idxTwo="22"  coef="-1.5399"/><qTerm  idx="-1"  idxOne="10"  idxTwo="10"  coef=".9873"/><qTerm  idx="-1"  idxOne="10"  idxTwo="18"  coef="1.911"/><qTerm  idx="-1"  idxOne="10"  idxTwo="22"  coef="-7.5e-3"/><qTerm  idx="-1"  idxOne="10"  idxTwo="23"  coef=".3176"/><qTerm  idx="-1"  idxOne="10"  idxTwo="25"  coef="1.6343"/><qTerm  idx="-1"  idxOne="11"  idxTwo="14"  coef="-1.673"/><qTerm  idx="-1"  idxOne="11"  idxTwo="19"  coef=".711"/><qTerm  idx="-1"  idxOne="12"  idxTwo="12"  coef=".5944"/><qTerm  idx="-1"  idxOne="12"  idxTwo="18"  coef="-1.651"/><qTerm  idx="-1"  idxOne="12"  idxTwo="20"  coef="-1.1568"/><qTerm  idx="-1"  idxOne="12"  idxTwo="22"  coef=".8334"/><qTerm  idx="-1"  idxOne="12"  idxTwo="24"  coef=".6481"/><qTerm  idx="-1"  idxOne="12"  idxTwo="29"  coef="-1.4611"/><qTerm  idx="-1"  idxOne="13"  idxTwo="13"  coef="1.2164"/><qTerm  idx="-1"  idxOne="13"  idxTwo="17"  coef="1.778"/><qTerm  idx="-1"  idxOne="13"  idxTwo="20"  coef="1.3358"/><qTerm  idx="-1"  idxOne="13"  idxTwo="26"  coef="1.745"/><qTerm  idx="-1"  idxOne="14"  idxTwo="15"  coef="1.0744"/><qTerm  idx="-1"  idxOne="14"  idxTwo="24"  coef=".8985"/><qTerm  idx="-1"  idxOne="14"  idxTwo="25"  coef=".5944"/><qTerm  idx="-1"  idxOne="14"  idxTwo="26"  coef="1.4253"/><qTerm  idx="-1"  idxOne="14"  idxTwo="27"  coef="-1.5456"/><qTerm  idx="-1"  idxOne="14"  idxTwo="29"  coef=".2445"/><qTerm  idx="-1"  idxOne="15"  idxTwo="27"  coef=".8756"/><qTerm  idx="-1"  idxOne="16"  idxTwo="18"  coef=".7765"/><qTerm  idx="-1"  idxOne="16"  idxTwo="19"  coef="-1.2626"/><qTerm  idx="-1"  idxOne="16"  idxTwo="20"  coef="-1.5307"/><qTerm  idx="-1"  idxOne="16"  idxTwo="24"  coef="-.3621"/><qTerm  idx="-1"  idxOne="17"  idxTwo="23"  coef="1.26"/><qTerm  idx="-1"  idxOne="17"  idxTwo="25"  coef="9.26e-2"/><qTerm  idx="-1"  idxOne="18"  idxTwo="20"  coef="-1.0222"/><qTerm  idx="-1"  idxOne="18"  idxTwo="26"  coef="1.0452"/><qTerm  idx="-1"  idxOne="19"  idxTwo="19"  coef="1.5172"/><qTerm  idx="-1"  idxOne="19"  idxTwo="26"  coef="1.0554"/><qTerm  idx="-1"  idxOne="19"  idxTwo="28"  coef=".4398"/><qTerm  idx="-1"  idxOne="20"  idxTwo="21"  coef=".1374"/><qTerm  idx="-1"  idxOne="20"  idxTwo="22"  coef="-.3148"/><qTerm  idx="-1"  idxOne="20"  idxTwo="24"  coef="1.8725"/><qTerm  idx="-1"  idxOne="20"  idxTwo="25"  coef="-.8118"/><qTerm  idx="-1"  idxOne="21"  idxTwo="24"  coef="1.1073"/><qTerm  idx="-1"  idxOne="21"  idxTwo="29"  coef="1.7474"/><qTerm  idx="-1"  idxOne="22"  idxTwo="24"  coef="-1.9835"/><qTerm  idx="-1"  idxOne="22"  idxTwo="27"  coef=".3742"/><qTerm  idx="-1"  idxOne="22"  idxTwo="28"  coef="1.5142"/><qTerm  idx="-1"  idxOne="23"  idxTwo="26"  coef="1.5207"/><qTerm  idx="-1"  idxOne="24"  idxTwo="26"  coef="3.05e-2"/><qTerm  idx="-1"  idxOne="27"  idxTwo="28"  coef="-1.0629"/><qTerm  idx="-1"  idxOne="28"  idxTwo="28"  coef="1.0129"/></quadraticCoefficients></instanceData></osil>
